100 275400
84 87 81 28 32 14 10 100 15 1 66 29 44 31 73 63 74 46 78 9 35 24 86 98 37 45 22 64 43 4 91 58 93 96 13 39 54 27 71 57 8 42 26 80 90 56 76 16 62 95 11 59 5 23 47 19 79 41 88 60 94 82 52 49 69 61 17 83 12 34 40 70 38 20 3 7 99 51 25 97 89 55 65 53 36 75 72 68 30 77 21 92 6 33 18 67 85 2 48 50 
